0,132,337,441,314,146,151,188,263,186,174
132,0,527,469,221,300,508,540,266,449,196
337,527,0,389,478,189,314,545,107,379,102
441,469,389,0,243,432,524,180,82,129,519
314,221,478,243,0,135,522,402,486,273,380
146,300,189,432,135,0,552,108,97,86,510
151,508,314,524,522,552,0,113,276,52,404
188,540,545,180,402,108,113,0,416,163,113
263,266,107,82,486,97,276,416,0,370,526
186,449,379,129,273,86,52,163,370,0,199
174,196,102,519,380,510,404,113,526,199,0
